n_res = 4;
rc = [ 12, 14, 16, 15 ];
n_tasks = 30;
d = [ 6, 10, 10, 5, 8, 3, 8, 10, 6, 7, 8, 5, 2, 6, 6, 9, 10, 4, 6, 10, 7, 7, 9, 3, 6, 5, 3, 10, 3, 10 ];
rr = [| 0, 10, 8, 0, 1, 6, 8, 6, 0, 0, 8, 8, 6, 2, 0, 0, 0, 3, 3, 5, 6, 0, 7, 1, 1, 1, 0, 9, 5, 0
      | 9, 1, 2, 7, 6, 2, 7, 8, 7, 2, 10, 5, 0, 7, 2, 3, 6, 5, 2, 4, 1, 0, 8, 9, 0, 5, 1, 9, 5, 0
      | 8, 7, 0, 8, 0, 0, 6, 2, 6, 10, 10, 10, 7, 4, 6, 5, 0, 3, 4, 3, 5, 3, 3, 10, 0, 10, 10, 0, 7, 0
      | 7, 0, 6, 0, 3, 1, 6, 5, 3, 10, 10, 0, 0, 0, 8, 0, 6, 6, 2, 9, 8, 8, 6, 0, 8, 7, 5, 1, 0, 5 |];
suc = [ { 2 }, 
        { 1 }, 
        { 4 }, 
        { 3 }, 
        { 6 }, 
        { 5 }, 
        { 8 }, 
        { 7 }, 
        { 10 }, 
        { 9 }, 
        { 12 }, 
        { 11 }, 
        { 14 }, 
        { 13 }, 
        { 16 }, 
        { 15 }, 
        { 18 }, 
        { 17 }, 
        { 20 }, 
        { 19 }, 
        { 22 }, 
        { 21 }, 
        { 24 }, 
        { 23 }, 
        { 26 }, 
        { 25 }, 
        { 28 }, 
        { 27 }, 
        { 30 }, 
        { 29 }]; 
